18.41 0.22 2.42 15.18 0.22 4.64 24.09 0.12 2.14 20.92 0.24 3.34
24.33 0.22 2.0 16.48 0.12 4.31 12.36 0.14 2.33 11.36 0.14 2.78
12.04 0.24 4.47 21.39 0.24 2.49 10.09 0.29 2.11 16.81 0.28 2.4
27.86 0.22 4.44 22.3 0.18 4.16 20.77 0.21 4.35 25.67 0.18 4.81
15.98 0.21 3.54 27.62 0.15 2.52 28.45 0.25 3.54 27.03 0.23 4.28
